(set-info :smt-lib-version 2.6)
(set-logic QF_UFLRA)
(set-info :source |
MathSat group

|)
(set-info :category "random")
(set-info :status sat)
(declare-fun x0 () Real)
(declare-fun x1 () Real)
(declare-fun x2 () Real)
(declare-fun x3 () Real)
(declare-fun x4 () Real)
(declare-fun x5 () Real)
(declare-fun x6 () Real)
(declare-fun x7 () Real)
(declare-fun x8 () Real)
(declare-fun x9 () Real)
(declare-fun x10 () Real)
(declare-fun x11 () Real)
(declare-fun x12 () Real)
(declare-fun x13 () Real)
(declare-fun x14 () Real)
(declare-fun x15 () Real)
(declare-fun x16 () Real)
(declare-fun x17 () Real)
(declare-fun x18 () Real)
(declare-fun x19 () Real)
(declare-fun x20 () Real)
(declare-fun x21 () Real)
(declare-fun x22 () Real)
(declare-fun x23 () Real)
(declare-fun x24 () Real)
(declare-fun x25 () Real)
(declare-fun x26 () Real)
(declare-fun x27 () Real)
(declare-fun x28 () Real)
(declare-fun x29 () Real)
(declare-fun x30 () Real)
(declare-fun x31 () Real)
(declare-fun x32 () Real)
(declare-fun x33 () Real)
(declare-fun x34 () Real)
(declare-fun x35 () Real)
(declare-fun x36 () Real)
(declare-fun x37 () Real)
(declare-fun x38 () Real)
(declare-fun x39 () Real)
(declare-fun x40 () Real)
(declare-fun x41 () Real)
(declare-fun x42 () Real)
(declare-fun x43 () Real)
(declare-fun x44 () Real)
(declare-fun x45 () Real)
(declare-fun x46 () Real)
(declare-fun x47 () Real)
(declare-fun x48 () Real)
(declare-fun x49 () Real)
(declare-fun f0_1 (Real) Real)
(declare-fun f0_2 (Real Real) Real)
(declare-fun f0_3 (Real Real Real) Real)
(declare-fun f0_4 (Real Real Real Real) Real)
(declare-fun P0 () Bool)
(declare-fun P1 () Bool)
(declare-fun P2 () Bool)
(declare-fun P3 () Bool)
(declare-fun P4 () Bool)
(declare-fun P5 () Bool)
(declare-fun P6 () Bool)
(declare-fun P7 () Bool)
(declare-fun P8 () Bool)
(declare-fun P9 () Bool)
(declare-fun P10 () Bool)
(declare-fun P11 () Bool)
(declare-fun P12 () Bool)
(declare-fun P13 () Bool)
(declare-fun P14 () Bool)
(declare-fun P15 () Bool)
(declare-fun P16 () Bool)
(declare-fun P17 () Bool)
(declare-fun P18 () Bool)
(declare-fun P19 () Bool)
(declare-fun P20 () Bool)
(declare-fun P21 () Bool)
(declare-fun P22 () Bool)
(declare-fun P23 () Bool)
(declare-fun P24 () Bool)
(declare-fun P25 () Bool)
(declare-fun P26 () Bool)
(declare-fun P27 () Bool)
(declare-fun P28 () Bool)
(declare-fun P29 () Bool)
(declare-fun P30 () Bool)
(declare-fun P31 () Bool)
(declare-fun P32 () Bool)
(declare-fun P33 () Bool)
(declare-fun P34 () Bool)
(declare-fun P35 () Bool)
(declare-fun P36 () Bool)
(declare-fun P37 () Bool)
(declare-fun P38 () Bool)
(declare-fun P39 () Bool)
(declare-fun P40 () Bool)
(declare-fun P41 () Bool)
(declare-fun P42 () Bool)
(declare-fun P43 () Bool)
(declare-fun P44 () Bool)
(declare-fun P45 () Bool)
(declare-fun P46 () Bool)
(declare-fun P47 () Bool)
(declare-fun P48 () Bool)
(declare-fun P49 () Bool)
(assert (let ((?v_27 (* 17 x2)) (?v_10 (* 3 x19)) (?v_22 (* 17 x5)) (?v_114 (= (- (+ (* 2 x9) (* 7 x44)) (* 18 x15)) 23)) (?v_42 (* 2 x31))) (let ((?v_48 (<= (- (- (* 21 x41) ?v_10) (* 16 x7)) 6)) (?v_71 (< (- (- (* 9 x0) (* 10 x34)) (* 6 x2)) 26)) (?v_131 (* 8 x28)) (?v_175 (= (- (+ (* 17 x4) (* 18 x2)) (* 24 x2)) 23)) (?v_133 (distinct (- (- (* 20 x19) (* 6 x21)) (* 24 x38)) 5)) (?v_81 (distinct (f0_1 x45) (f0_2 x9 x2))) (?v_173 (= (f0_1 x43) x28)) (?v_109 (= x23 (f0_2 x48 x33))) (?v_60 (= (f0_2 x5 x49) x6)) (?v_64 (distinct x10 (f0_1 x8))) (?v_99 (f0_1 x30))) (let ((?v_129 (= (f0_2 x28 x32) ?v_99)) (?v_75 (f0_1 x38))) (let ((?v_86 (= ?v_75 (f0_1 x19))) (?v_134 (= x13 x43)) (?v_178 (distinct x35 x2)) (?v_108 (distinct (f0_1 x18) (f0_1 x46))) (?v_36 (= (f0_2 x3 x22) x6)) (?v_154 (= (f0_2 x16 x47) x48)) (?v_188 (= (f0_2 x16 x23) x29)) (?v_213 (= x44 x24)) (?v_95 (= (f0_2 x18 x46) (f0_2 x7 x40))) (?v_92 (distinct x43 (f0_2 x4 x31))) (?v_176 (= (f0_2 x43 x10) (f0_2 x43 x2))) (?v_33 (distinct (f0_2 x38 x3) (f0_2 x7 x9))) (?v_17 (f0_1 x10))) (let ((?v_62 (distinct ?v_17 (f0_1 x12))) (?v_201 (distinct (f0_2 x42 x41) x35)) (?v_135 (= (f0_2 x13 x34) (f0_2 x6 x9))) (?v_138 (= x10 x36)) (?v_111 (= (f0_1 x26) x11)) (?v_243 (distinct (f0_1 x5) (f0_2 x11 x21))) (?v_53 (distinct x8 (f0_2 x23 x13))) (?v_195 (distinct (f0_2 x42 x12) x44)) (?v_119 (= ?v_75 x21)) (?v_126 (= (f0_2 x9 x27) (f0_2 x48 x21))) (?v_29 (f0_1 x28))) (let ((?v_78 (distinct ?v_29 x17)) (?v_142 (distinct (f0_2 x41 x9) ?v_29)) (?v_20 (= ?v_29 (f0_2 x20 x26))) (?v_37 (distinct (f0_2 x41 x26) (f0_1 x3))) (?v_136 (distinct ?v_17 (f0_2 x17 x35))) (?v_57 (distinct x18 (f0_2 x19 x47))) (?v_46 (distinct x46 (f0_2 x5 x16))) (?v_137 (distinct x43 x12)) (?v_180 (= (f0_1 x47) (f0_2 x36 x11))) (?v_16 (f0_1 x37))) (let ((?v_18 (distinct ?v_16 (f0_2 x40 x41))) (?v_85 (distinct (f0_2 x6 x24) (f0_2 x20 x24))) (?v_169 (= (f0_1 x9) (f0_2 x3 x3))) (?v_56 (= (f0_2 x46 x40) x43)) (?v_84 (distinct (f0_1 x35) (f0_1 x27))) (?v_9 (= x33 (f0_2 x38 x6))) (?v_187 (distinct (f0_1 x40) (f0_2 x39 x9))) (?v_23 (= x15 (f0_2 x28 x29))) (?v_40 (= ?v_16 ?v_17)) (?v_65 (= (f0_2 x46 x15) x49)) (?v_116 (distinct (f0_1 x49) x28)) (?v_244 (distinct ?v_99 (f0_2 x46 x1))) (?v_155 (= x34 x25)) (?v_0 (not ?v_135)) (?v_88 (not P44)) (?v_96 (not P38))) (let ((?v_59 (not ?v_116)) (?v_28 (not P39)) (?v_39 (not P24)) (?v_3 (not P46)) (?v_6 (not ?v_37)) (?v_2 (not P2)) (?v_103 (not ?v_9)) (?v_70 (not P42)) (?v_55 (not ?v_173)) (?v_130 (not ?v_23)) (?v_127 (not ?v_137)) (?v_19 (not ?v_57)) (?v_11 (not ?v_136)) (?v_72 (not ?v_243)) (?v_7 (not ?v_56)) (?v_26 (not P16)) (?v_194 (not ?v_111)) (?v_192 (not ?v_180))) (let ((?v_253 (or ?v_11 P30)) (?v_68 (not P9)) (?v_193 (not ?v_20)) (?v_170 (not ?v_86)) (?v_30 (not P45)) (?v_41 (not P30)) (?v_146 (not ?v_33)) (?v_77 (not P25)) (?v_50 (not P18)) (?v_61 (not ?v_46)) (?v_49 (not P28)) (?v_179 (not P32)) (?v_34 (not P21)) (?v_206 (not ?v_85)) (?v_122 (not P20)) (?v_174 (not ?v_92)) (?v_74 (not ?v_176)) (?v_79 (not P1)) (?v_76 (not ?v_155)) (?v_101 (not P14)) (?v_151 (not ?v_129)) (?v_257 (not P43)) (?v_198 (not ?v_48)) (?v_152 (not P27)) (?v_166 (not ?v_175)) (?v_199 (not P10)) (?v_125 (not P6)) (?v_182 (not P49)) (?v_218 (not ?v_114)) (?v_115 (not ?v_62)) (?v_105 (not P36)) (?v_100 (not P4)) (?v_145 (not P17)) (?v_234 (not P47)) (?v_235 (not ?v_119)) (?v_141 (not ?v_78)) (?v_251 (not ?v_64)) (?v_222 (not ?v_95)) (?v_226 (not ?v_138)) (?v_209 (not ?v_195)) (?v_121 (not ?v_169)) (?v_160 (not ?v_53)) (?v_140 (not ?v_244)) (?v_112 (not P37)) (?v_256 (not ?v_108)) (?v_120 (not ?v_40)) (?v_167 (not P7)) (?v_215 (not P11)) (?v_162 (not ?v_109)) (?v_229 (not P31)) (?v_149 (not P48)) (?v_153 (not ?v_213)) (?v_168 (not ?v_126)) (?v_239 (not ?v_134)) (?v_150 (not P33)) (?v_190 (not ?v_142)) (?v_163 (not P29)) (?v_207 (not P34)) (?v_184 (not ?v_154)) (?v_172 (not ?v_84)) (?v_225 (not ?v_178)) (?v_161 (not ?v_65)) (?v_181 (not ?v_201)) (?v_232 (not P22)) (?v_238 (not ?v_81)) (?v_242 (not P5)) (?v_237 (not P15)) (?v_186 (not P26)) (?v_212 (not P35)) (?v_203 (not ?v_71)) (?v_205 (not P0)) (?v_214 (not P40)) (?v_210 (not P13)) (?v_245 (not P41)) (?v_217 (not P12)) (?v_221 (not P8)) (?v_250 (not P3)) (?v_248 (not P23)) (?v_236 (not P19)) (?v_252 (not ?v_60)) (?v_241 (not ?v_187)) (?v_255 (not ?v_188)) (?v_258 (not ?v_18)) (?v_52 (distinct (+ (* 21 x19) (* 10 x27) (* 23 x38)) 0)) (?v_118 (< (- (* 23 x12) ?v_22) 2)) (?v_102 (<= (+ (* 14 x15) ?v_27 (* 24 x8)) 29))) (let ((?v_67 (not ?v_102)) (?v_107 (= (- (* 24 x40) (* 18 x20)) 22))) (let ((?v_211 (not ?v_107)) (?v_54 (<= (+ (* 25 x19) (* 25 x47) (* 23 x19)) 18)) (?v_139 (not ?v_52)) (?v_156 (distinct (+ (- (* 6 x47) (* 8 x18)) x31) 9)) (?v_177 (< (+ (* 26 x33) (* 12 x3)) 5))) (let ((?v_216 (not ?v_177)) (?v_165 (not ?v_54)) (?v_247 (not ?v_118)) (?v_219 (not ?v_156)) (?v_31 (<= (- (- (* (- 6) x18) ?v_10) (* 20 x27)) (- 26))) (?v_14 (< (+ (* (- 21) x37) (* 19 x36) (* 6 x41)) 14))) (let ((?v_24 (not ?v_14)) (?v_4 (< (- (+ (* 7 x24) (* 7 x47)) (* 22 x13)) (- 5)))) (let ((?v_1 (not ?v_4)) (?v_15 (distinct (- (- (* 13 x36) (* 5 x19)) (* 14 x8)) (- 6)))) (let ((?v_8 (not ?v_15)) (?v_38 (< (- (+ (* 23 x1) (* 26 x14)) (* 21 x16)) (- 6)))) (let ((?v_58 (not ?v_38)) (?v_5 (<= (+ (- (* (- 9) x10) (* 3 x14)) (* 9 x37)) 22))) (let ((?v_98 (not ?v_5)) (?v_83 (< (- (* 9 x14) (* 7 x31)) (- 22))) (?v_12 (<= (+ (- (* (- 22) x20) (* 12 x11)) (* 26 x48)) (- 1)))) (let ((?v_44 (not ?v_12)) (?v_82 (<= (+ (- (* (- 21) x18) (* 11 x6)) (* 17 x47)) 14)) (?v_147 (= (+ x19 (* 7 x30)) (- 23)))) (let ((?v_197 (not ?v_147)) (?v_13 (distinct (+ (* (- 20) x41) (* 9 x43) (* 18 x35)) 24))) (let ((?v_66 (not ?v_13)) (?v_185 (< (- (- (* 22 x3) x7) (* 9 x47)) (- 16))) (?v_73 (<= (- (+ (* (- 24) x33) (* 18 x46)) (* 3 x15)) 4)) (?v_32 (< (- (- 0 ?v_10) x1) (- 15))) (?v_25 (<= (- (+ (* (- 4) x30) (* 18 x17)) 0) (- 14))) (?v_90 (<= (- (- (* 21 x40) (* 17 x3)) (* 10 x46)) (- 13)))) (let ((?v_21 (not ?v_90)) (?v_69 (<= (+ (- (* (- 9) x38) (* 27 x15)) (* 9 x48)) 7)) (?v_228 (< (- (- 0 (* 13 x10)) ?v_42) (- 10)))) (let ((?v_128 (not ?v_228)) (?v_51 (< (- (- (* (- 13) x27) ?v_22) (* 2 x1)) 0)) (?v_144 (< (+ (- (* 16 x12) (* 19 x1)) (* 13 x14)) (- 22)))) (let ((?v_189 (not ?v_144)) (?v_123 (< (+ (- (* (- 23) x17) ?v_131) (* 27 x47)) 15)) (?v_47 (not ?v_25)) (?v_124 (<= (- (- (* (- 23) x20) (* 16 x15)) (* 3 x49)) (- 16)))) (let ((?v_80 (not ?v_124)) (?v_43 (<= (- (- (* (- 24) x40) (* 12 x29)) ?v_27) (- 9)))) (let ((?v_97 (not ?v_43)) (?v_94 (< (- (+ (* (- 17) x3) (* 21 x25)) (* 7 x23)) (- 25)))) (let ((?v_204 (not ?v_94)) (?v_158 (< (- (+ (* (- 15) x14) (* 8 x44)) 0) 18)) (?v_35 (not ?v_31)) (?v_106 (not ?v_32)) (?v_159 (= (+ (- (* (- 14) x0) (* 17 x6)) (* 24 x34)) 24)) (?v_63 (<= (- (+ (* (- 17) x25) (* 13 x33)) (* 6 x16)) 6)) (?v_148 (<= (+ x37 (* 15 x41) (* 3 x20)) (- 21)))) (let ((?v_45 (not ?v_148)) (?v_89 (< (+ (* (- 4) x22) (* 9 x49) (* 9 x35)) 8))) (let ((?v_230 (not ?v_89)) (?v_91 (< (- (+ (* (- 6) x46) ?v_42) (* 13 x3)) (- 21))) (?v_117 (not ?v_63)) (?v_110 (<= (* (- 26) x19) 7)) (?v_223 (< (+ (* (- 9) x2) (* 16 x18) (* 14 x10)) 3))) (let ((?v_240 (not ?v_223)) (?v_87 (distinct (+ (* (- 27) x47) x39) 7)) (?v_233 (not ?v_82)) (?v_104 (not ?v_83)) (?v_93 (<= (- (- (* (- 8) x15) (* 19 x15)) (* 4 x28)) (- 13))) (?v_132 (not ?v_51)) (?v_143 (not ?v_91))) (let ((?v_249 (not ?v_93)) (?v_113 (not ?v_110)) (?v_171 (<= (+ (- x9 (* 20 x28)) (* 10 x26)) (- 3))) (?v_200 (not ?v_87)) (?v_231 (< (- (* (- 11) x7) (* 3 x4)) 12))) (let ((?v_164 (not ?v_231)) (?v_208 (< (- (- (* (- 14) x4) (* 27 x22)) ?v_131) (- 25))) (?v_202 (not ?v_69)) (?v_157 (< (- (+ (* (- 15) x3) (* 26 x10)) (* 11 x2)) 11))) (let ((?v_183 (not ?v_157))) (let ((?v_254 (or P48 ?v_183)) (?v_196 (not ?v_123)) (?v_227 (not ?v_171)) (?v_220 (not ?v_73)) (?v_191 (not ?v_185)) (?v_224 (not ?v_208)) (?v_246 (not ?v_158))) (and (and (and (and (and (and (and (and (and (and (and (and (and (and (and (and (and (and (and (and (and (and (and (and (and (and (and (and (and (and (and (and (and (and (and (and (and (and (and (and (and (and (and (and (and (and (and (and (and (and (and (and (and (and (and (and (and (and (and (and (and (and (and (and (and (and (and (and (and (and (and (and (and (and (and (and (and (and (and (and (and (and (and (and (and (and (and (and (and (and (and (and (and (and (and (and (and (and (and (and (and (and (and (and (and (and (and (and (and (and (and (and (and (and (and (and (and (and (and (and (and (and (and (and (and (and (and (and (and (and (and (and (and (and (and (and (and (and (and (and (and (and (and (and (and (and (and (and (and (and (and (and (and (and (and (and (and (and (and (and (and (and (and (and (and (and (and (and (and (and (and (and (and (and (and (and (and (and (and (and (and (and (and (and (and (and (and (and (and (and (and (and (and (and (and (and (and (and (and (and (and (and (and (and (and (and (and (and (and (and (and (and (and (and (and (and (and (and (and (and (and (and (and (and (and (and (and (and (and (and (and (and (and (and (and (and (and (and (and (and (and (and (and (and (and (and (and (and (and (and (and (and (and (and (and (and (and (and (and (and (and (and (and (and (and (and (and (and (and (and (and (and (and (and (and (and (and (and (and (and (and (and (and (and (and (and (and (and (and (and (and (and (and (and (and (and (and (and (and (and (and (and (and (and (and (and (and (and (and (and (and (and (and (and (and (and (and (and (and (and (and (and (and (and (and (and (and (and (and (and (and (and (and (and (and (and (and (and (and (and (and (and (and (and (and (and (and (and (and (and (and (and (and (and (and (and (and (and (and (and (and (and (and (and (and (and (and (and (and (and (and (and (and (and (and (and (and (and (and (and (and (and (and (and (and (and (and (and (and (and (and (and (and (and (and (and (and (and (and (and (and (and (and (and (and (and (and (and (and (and (and (and (and (and (and (and (and (and (and (and (and (and (and (and (and (and (and (and (and (and (and (and (and (and (and (and (and (and (and (and (and (and (and (and (and (and (and (and (and (and (and (and (and (and (and (and (and (and (and (and (and (and (and (and (and (and (and (and (and (and (and (and (and (and (and (and (and (and (and (and (and (and (and (and (and (and (and (and (and (and (and (and (and (and (and (and (and (and (and (and (and (and (and (and (and (and (and (and (and (and (and (and (and (and (and (and (and (and (and (and (and (and (and (and (and (and (and (and (and (and (and (and (and (and (and (and (and (and (and (and (and (and (and (and (and (and (and (and (and (and (and (and (and (and (and (and (and (and (and (and (and (and (and (and (and (and (and (and (and (and (and (and (and (and (and (and (and (and (and (and (and (and (and (and (and (and (and (and (and (and (and (and (and (and (and (and (and (and (and (or (or ?v_0 ?v_31) P44) (or (or P48 ?v_71) ?v_24)) (or (or ?v_1 ?v_126) ?v_0)) (or (or ?v_88 ?v_1) ?v_8)) (or (or ?v_58 ?v_96) ?v_59)) (or (or ?v_98 ?v_28) ?v_39)) (or (or P22 ?v_3) ?v_6)) (or (or ?v_2 ?v_103) ?v_52)) (or (or ?v_2 ?v_70) ?v_55)) (or (or ?v_130 ?v_127) ?v_19)) (or (or ?v_83 ?v_11) ?v_3)) (or (or ?v_72 ?v_187) ?v_44)) (or (or ?v_82 ?v_4) ?v_5)) (or (or ?v_36 ?v_197) ?v_7)) (or (or ?v_26 ?v_66) ?v_134)) (or (or ?v_6 ?v_185) ?v_194)) (or (or ?v_192 ?v_7) ?v_73)) (or (or ?v_8 ?v_9) ?v_32)) (or ?v_253 ?v_9)) (or (or ?v_118 ?v_25) ?v_12)) (or (or ?v_60 P23) ?v_68)) (or (or ?v_13 ?v_18) P45)) (or (or ?v_193 ?v_3) ?v_170)) (or (or P37 ?v_14) P48)) (or (or ?v_30 ?v_21) ?v_69)) (or (or ?v_15 P31) ?v_40)) (or (or ?v_18 ?v_19) ?v_20)) (or (or ?v_67 ?v_21) ?v_211)) (or (or ?v_128 ?v_51) ?v_41)) (or (or ?v_146 P14) ?v_77)) (or (or ?v_50 ?v_18) ?v_23)) (or (or ?v_61 P39) ?v_189)) (or (or ?v_24 ?v_123) ?v_54)) (or (or ?v_47 P43) ?v_80)) (or (or ?v_48 ?v_26) ?v_97)) (or (or ?v_49 ?v_204) ?v_179)) (or (or ?v_34 ?v_158) ?v_206)) (or (or ?v_28 P16) ?v_142)) (or (or ?v_30 ?v_35) P47)) (or (or ?v_64 ?v_106) ?v_122)) (or (or ?v_6 ?v_33) ?v_34)) (or (or ?v_174 ?v_74) ?v_35)) (or (or ?v_36 P2) ?v_37)) (or (or ?v_159 P35) ?v_38)) (or (or ?v_63 ?v_39) ?v_45)) (or (or ?v_79 ?v_62) P38)) (or (or ?v_76 P49) P47)) (or (or ?v_40 ?v_84) ?v_41)) (or (or ?v_101 P45) ?v_230)) (or (or ?v_151 P13) P11)) (or (or ?v_91 ?v_43) ?v_257)) (or (or ?v_44 ?v_45) ?v_46)) (or (or ?v_33 ?v_47) ?v_198)) (or (or P2 ?v_30) ?v_152)) (or (or ?v_25 ?v_49) P0)) (or (or ?v_81 P23) ?v_31)) (or (or ?v_2 ?v_53) ?v_50)) (or (or ?v_166 ?v_199) ?v_51)) (or (or ?v_139 ?v_53) ?v_54)) (or (or P43 ?v_55) ?v_56)) (or (or ?v_125 ?v_38) ?v_57)) (or (or P35 ?v_182) ?v_33)) (or (or ?v_8 P13) ?v_218)) (or (or ?v_58 ?v_59) ?v_60)) (or (or P14 ?v_61) ?v_115)) (or (or ?v_57 P20) ?v_188)) (or (or ?v_117 ?v_64) ?v_65)) (or (or ?v_105 ?v_109) ?v_65)) (or (or ?v_66 ?v_100) ?v_67)) (or (or P2 ?v_68) P43)) (or (or ?v_35 ?v_60) ?v_145)) (or (or P7 ?v_234) ?v_110)) (or (or ?v_28 ?v_69) ?v_63)) (or (or ?v_70 ?v_71) ?v_72)) (or (or P3 ?v_73) ?v_60)) (or (or ?v_39 ?v_74) ?v_13)) (or (or ?v_235 ?v_76) ?v_31)) (or (or ?v_57 ?v_78) ?v_77)) (or (or ?v_141 P32) ?v_52)) (or (or ?v_156 ?v_251) ?v_79)) (or (or ?v_240 ?v_222) ?v_87)) (or (or ?v_80 ?v_226) ?v_209)) (or (or ?v_81 ?v_233) ?v_36)) (or (or ?v_104 ?v_84) ?v_85)) (or (or ?v_86 P36) ?v_87)) (or (or ?v_216 ?v_19) ?v_165)) (or (or ?v_88 ?v_82) ?v_93)) (or (or ?v_60 ?v_89) ?v_90)) (or (or ?v_132 ?v_143) P17)) (or (or P31 ?v_92) P16)) (or (or ?v_121 ?v_88) ?v_249)) (or (or ?v_94 ?v_95) ?v_96)) (or (or ?v_97 ?v_98) ?v_160)) (or (or ?v_64 (not ?v_36)) ?v_140)) (or (or ?v_100 ?v_38) ?v_108)) (or (or P43 P44) ?v_101)) (or (or ?v_102 P37) ?v_81)) (or (or ?v_103 ?v_104) P41)) (or (or ?v_112 ?v_105) P48)) (or (or ?v_13 P19) P30)) (or (or ?v_100 P46) ?v_106)) (or (or ?v_107 ?v_256) ?v_94)) (or (or ?v_89 ?v_120) ?v_109)) (or (or ?v_113 ?v_33) ?v_111)) (or (or ?v_167 ?v_112) ?v_15)) (or (or P13 ?v_113) ?v_30)) (or (or ?v_72 ?v_215) ?v_114)) (or (or P31 ?v_66) ?v_21)) (or (or ?v_115 ?v_116) P8)) (or (or P25 P39) ?v_117)) (or (or ?v_3 ?v_69) ?v_9)) (or (or ?v_68 ?v_115) ?v_51)) (or (or ?v_100 ?v_171) ?v_118)) (or (or ?v_200 ?v_162) P16)) (or (or ?v_119 ?v_247) ?v_133)) (or (or ?v_229 ?v_18) ?v_120)) (or (or ?v_3 P39) ?v_108)) (or (or P16 ?v_121) ?v_122)) (or (or P9 ?v_149) ?v_32)) (or (or ?v_123 ?v_80) ?v_97)) (or (or ?v_124 P7) ?v_40)) (or (or ?v_125 ?v_28) P20)) (or (or ?v_93 ?v_61) ?v_91)) (or (or ?v_81 ?v_153) ?v_70)) (or (or ?v_73 ?v_168) P13)) (or (or ?v_127 ?v_128) ?v_129)) (or (or ?v_103 ?v_130) ?v_154)) (or (or ?v_164 ?v_208) ?v_132)) (or (or ?v_103 ?v_133) ?v_14)) (or (or ?v_239 ?v_109) ?v_45)) (or (or ?v_150 ?v_135) ?v_93)) (or (or ?v_136 ?v_121) ?v_71)) (or (or ?v_119 P30) ?v_7)) (or (or P27 ?v_202) ?v_137)) (or (or ?v_138 P10) ?v_139)) (or (or P33 ?v_80) ?v_78)) (or (or ?v_157 ?v_140) P5)) (or (or ?v_86 ?v_141) ?v_56)) (or (or ?v_190 ?v_143) P38)) (or (or ?v_144 ?v_120) ?v_163)) (or (or ?v_135 ?v_35) ?v_145)) (or (or ?v_142 P46) ?v_146)) (or (or ?v_5 P5) P8)) (or (or ?v_123 ?v_135) ?v_207)) (or (or P17 ?v_32) ?v_50)) (or (or ?v_147 ?v_71) ?v_12)) (or (or ?v_74 ?v_148) ?v_67)) (or (or ?v_95 ?v_77) ?v_13)) (or (or ?v_7 ?v_8) ?v_38)) (or (or ?v_117 ?v_1) ?v_3)) (or (or ?v_149 ?v_12) ?v_150)) (or (or P12 ?v_151) ?v_118)) (or (or ?v_58 ?v_95) ?v_152)) (or (or P47 ?v_96) ?v_116)) (or (or ?v_153 ?v_33) ?v_147)) (or (or ?v_184 ?v_60) P36)) (or (or P28 ?v_37) ?v_58)) (or (or ?v_172 ?v_69) P41)) (or (or ?v_155 ?v_225) ?v_219)) (or ?v_254 P36)) (or (or P46 ?v_161) ?v_158)) (or (or ?v_132 (not ?v_159)) ?v_134)) (or (or ?v_7 P39) ?v_41)) (or (or ?v_108 ?v_160) ?v_126)) (or (or ?v_31 ?v_157) ?v_161)) (or (or ?v_67 ?v_129) P7)) (or (or ?v_123 ?v_140) ?v_162)) (or (or ?v_124 P36) ?v_163)) (or (or ?v_164 ?v_97) ?v_196)) (or (or P23 ?v_165) ?v_160)) (or (or ?v_166 ?v_142) ?v_64)) (or (or ?v_167 ?v_168) ?v_77)) (or (or ?v_166 ?v_181) ?v_66)) (or (or ?v_5 P49) P13)) (or (or ?v_166 ?v_86) ?v_169)) (or (or ?v_66 ?v_170) P5)) (or (or P48 ?v_13) P12)) (or (or ?v_232 ?v_227) ?v_172)) (or (or ?v_173 ?v_79) ?v_34)) (or (or ?v_34 P16) P41)) (or (or ?v_148 ?v_91) ?v_60)) (or (or ?v_238 ?v_169) ?v_174)) (or (or ?v_35 ?v_135) ?v_97)) (or (or ?v_175 ?v_56) ?v_242)) (or (or ?v_147 ?v_176) ?v_177)) (or (or ?v_23 ?v_162) ?v_68)) (or (or P38 ?v_116) ?v_237)) (or (or ?v_64 ?v_44) ?v_176)) (or (or ?v_7 ?v_76) ?v_125)) (or (or ?v_153 ?v_178) ?v_45)) (or (or ?v_179 ?v_65) ?v_79)) (or (or ?v_180 ?v_18) ?v_14)) (or (or ?v_166 ?v_88) ?v_57)) (or (or ?v_186 ?v_181) ?v_44)) (or (or P28 P19) ?v_182)) (or (or ?v_183 ?v_44) ?v_220)) (or (or ?v_18 ?v_114) ?v_134)) (or (or ?v_21 ?v_44) ?v_133)) (or (or P33 ?v_144) ?v_212)) (or (or ?v_145 ?v_66) ?v_184)) (or (or ?v_113 ?v_32) P25)) (or (or P0 ?v_41) ?v_169)) (or (or ?v_1 ?v_191) P32)) (or (or ?v_89 ?v_3) ?v_186)) (or (or ?v_31 ?v_187) ?v_49)) (or (or P8 P45) ?v_165)) (or (or P6 P22) ?v_203)) (or (or ?v_92 ?v_188) ?v_144)) (or (or ?v_34 P1) ?v_74)) (or (or ?v_89 P4) ?v_182)) (or (or ?v_156 P45) ?v_189)) (or (or ?v_44 ?v_190) ?v_9)) (or (or ?v_57 ?v_158) ?v_191)) (or (or ?v_192 ?v_193) ?v_73)) (or (or ?v_49 ?v_5) P32)) (or (or ?v_163 ?v_132) ?v_182)) (or (or ?v_158 ?v_2) ?v_1)) (or (or P41 ?v_194) ?v_43)) (or (or ?v_143 ?v_117) P32)) (or (or P34 P29) ?v_195)) (or (or ?v_5 P35) ?v_58)) (or (or ?v_196 ?v_164) ?v_197)) (or (or P34 ?v_77) ?v_205)) (or (or ?v_66 ?v_108) ?v_214)) (or (or P12 P20) (not ?v_133))) (or (or ?v_198 P29) ?v_11)) (or (or ?v_210 P17) ?v_4)) (or (or ?v_190 P47) ?v_199)) (or (or ?v_200 P13) ?v_101)) (or (or ?v_107 P38) P41)) (or (or P8 ?v_201) ?v_109)) (or (or ?v_163 P12) ?v_77)) (or (or ?v_245 P18) ?v_197)) (or (or ?v_202 ?v_148) P29)) (or (or ?v_80 ?v_64) P43)) (or (or ?v_110 P20) ?v_124)) (or (or ?v_138 ?v_154) P20)) (or (or ?v_68 ?v_185) ?v_110)) (or (or ?v_155 ?v_5) ?v_68)) (or (or ?v_89 ?v_117) ?v_203)) (or (or ?v_139 ?v_63) ?v_104)) (or (or P5 ?v_138) ?v_182)) (or (or ?v_52 ?v_83) ?v_170)) (or (or P11 ?v_125) ?v_165)) (or (or ?v_204 ?v_86) ?v_197)) (or (or P18 ?v_25) ?v_205)) (or (or ?v_198 ?v_80) P20)) (or (or ?v_124 ?v_206) ?v_117)) (or (or ?v_148 ?v_61) P6)) (or (or ?v_137 P31) ?v_207)) (or (or ?v_189 ?v_171) ?v_140)) (or (or ?v_58 ?v_196) ?v_45)) (or (or ?v_178 ?v_107) ?v_104)) (or (or P32 P1) ?v_107)) (or (or ?v_224 ?v_217) ?v_35)) (or (or P21 ?v_50) ?v_209)) (or (or ?v_112 ?v_200) ?v_210)) (or (or P24 ?v_20) ?v_191)) (or (or P24 P45) ?v_58)) (or (or ?v_133 ?v_106) ?v_49)) (or (or ?v_176 ?v_135) ?v_174)) (or (or P8 P19) P46)) (or (or ?v_48 P23) ?v_41)) (or (or ?v_151 ?v_211) ?v_212)) (or (or ?v_213 ?v_107) ?v_221)) (or (or ?v_185 ?v_59) P47)) (or (or ?v_250 ?v_214) ?v_199)) (or (or ?v_176 ?v_142) ?v_80)) (or (or ?v_11 ?v_182) ?v_54)) (or (or ?v_113 ?v_15) ?v_160)) (or (or ?v_215 ?v_208) ?v_216)) (or (or ?v_199 ?v_184) ?v_98)) (or (or ?v_0 P35) ?v_57)) (or (or ?v_217 ?v_152) ?v_207)) (or (or ?v_91 ?v_20) ?v_25)) (or (or ?v_5 ?v_34) ?v_180)) (or (or P17 ?v_192) ?v_114)) (or (or ?v_206 ?v_53) ?v_8)) (or (or ?v_151 P34) ?v_24)) (or (or ?v_98 ?v_218) ?v_96)) (or (or ?v_56 P36) ?v_1)) (or (or ?v_11 ?v_111) ?v_219)) (or (or P2 ?v_124) ?v_96)) (or (or ?v_110 ?v_108) ?v_101)) (or (or ?v_118 ?v_112) ?v_88)) (or (or ?v_181 ?v_220) ?v_70)) (or (or ?v_221 ?v_24) P42)) (or (or P8 P26) ?v_222)) (or (or ?v_38 ?v_19) ?v_158)) (or (or ?v_62 ?v_73) ?v_141)) (or (or ?v_39 ?v_223) ?v_51)) (or (or ?v_154 ?v_224) ?v_248)) (or (or ?v_137 ?v_170) P43)) (or (or ?v_145 ?v_187) ?v_142)) (or (or ?v_23 ?v_11) ?v_225)) (or (or ?v_236 ?v_88) ?v_46)) (or (or ?v_74 ?v_91) ?v_11)) (or (or ?v_94 ?v_62) ?v_147)) (or (or P4 ?v_153) ?v_159)) (or (or ?v_226 P48) ?v_87)) (or (or ?v_128 ?v_82) ?v_90)) (or (or ?v_63 ?v_116) ?v_140)) (or (or ?v_140 ?v_197) ?v_221)) (or (or ?v_221 ?v_57) ?v_113)) (or (or ?v_184 ?v_83) ?v_210)) (or (or P25 ?v_178) ?v_183)) (or (or P22 ?v_113) ?v_89)) (or (or ?v_73 ?v_50) ?v_170)) (or (or P47 ?v_227) ?v_112)) (or (or ?v_175 ?v_86) ?v_122)) (or (or ?v_123 ?v_204) ?v_41)) (or (or P32 ?v_89) ?v_19)) (or (or ?v_77 ?v_228) ?v_213)) (or (or ?v_171 ?v_32) ?v_93)) (or (or ?v_34 P15) ?v_229)) (or (or ?v_189 ?v_3) ?v_230)) (or (or P7 ?v_24) ?v_5)) (or (or ?v_36 ?v_39) ?v_25)) (or (or ?v_156 ?v_2) ?v_252)) (or (or ?v_46 ?v_215) ?v_84)) (or (or ?v_11 ?v_23) P5)) (or (or ?v_49 ?v_90) P7)) (or (or ?v_117 ?v_226) ?v_177)) (or (or ?v_231 ?v_193) ?v_118)) (or (or ?v_225 ?v_46) ?v_197)) (or (or P45 ?v_102) ?v_220)) (or (or ?v_200 ?v_152) P47)) (or (or P42 ?v_196) ?v_198)) (or (or ?v_183 P23) ?v_60)) (or (or ?v_25 ?v_103) ?v_232)) (or (or ?v_202 ?v_135) ?v_218)) (or (or ?v_165 ?v_44) ?v_35)) (or (or ?v_32 ?v_11) ?v_33)) (or (or ?v_181 ?v_226) ?v_92)) (or (or P35 P14) ?v_162)) (or (or ?v_127 ?v_167) ?v_124)) (or (or ?v_64 ?v_126) ?v_109)) (or (or ?v_199 ?v_209) P19)) (or (or ?v_173 ?v_207) ?v_4)) (or (or ?v_212 ?v_28) ?v_96)) (or (or ?v_184 ?v_176) ?v_219)) (or (or ?v_59 P26) P25)) (or (or ?v_86 ?v_230) ?v_38)) (or (or ?v_217 ?v_192) ?v_102)) (or (or P13 ?v_202) ?v_174)) (or (or ?v_56 P49) ?v_127)) (or (or ?v_233 ?v_118) P19)) (or (or P45 ?v_170) ?v_4)) (or (or ?v_110 ?v_91) ?v_37)) (or (or ?v_43 ?v_163) ?v_92)) (or (or ?v_198 ?v_154) ?v_205)) (or (or ?v_63 ?v_218) ?v_3)) (or (or ?v_86 ?v_71) ?v_47)) (or (or ?v_58 ?v_101) ?v_226)) (or (or ?v_127 ?v_25) P17)) (or (or ?v_213 ?v_109) ?v_156)) (or (or ?v_157 ?v_201) ?v_19)) (or (or ?v_177 ?v_147) P8)) (or (or ?v_161 ?v_196) ?v_217)) (or (or ?v_179 ?v_221) ?v_230)) (or (or ?v_234 ?v_161) P9)) (or (or ?v_79 ?v_30) ?v_113)) (or (or ?v_7 P21) ?v_117)) (or (or ?v_204 ?v_62) ?v_135)) (or (or P25 ?v_7) P15)) (or (or P7 ?v_189) ?v_179)) (or (or ?v_144 ?v_235) ?v_175)) (or (or ?v_54 ?v_143) ?v_52)) (or (or ?v_111 ?v_105) ?v_119)) (or (or ?v_185 ?v_45) ?v_109)) (or (or ?v_195 ?v_189) ?v_106)) (or (or ?v_132 ?v_3) ?v_91)) (or (or ?v_70 P5) P34)) (or (or ?v_241 ?v_30) ?v_123)) (or (or ?v_224 P22) ?v_15)) (or (or ?v_65 ?v_188) ?v_96)) (or (or ?v_173 ?v_180) ?v_205)) (or (or ?v_35 P15) ?v_186)) (or (or P5 ?v_69) ?v_156)) (or (or ?v_68 ?v_194) ?v_218)) (or (or ?v_28 ?v_84) ?v_44)) (or (or ?v_67 ?v_176) P17)) (or (or ?v_236 ?v_147) P41)) (or (or ?v_134 ?v_39) ?v_221)) (or (or ?v_224 P28) P18)) (or (or P26 P31) ?v_157)) (or (or ?v_237 ?v_255) ?v_219)) (or (or ?v_30 ?v_154) ?v_33)) (or (or P37 ?v_238) ?v_219)) (or (or ?v_218 P40) P10)) (or (or ?v_239 ?v_128) P9)) (or (or P48 ?v_83) ?v_88)) (or (or ?v_9 P36) ?v_167)) (or (or ?v_196 ?v_118) ?v_240)) (or (or ?v_196 ?v_128) ?v_82)) (or (or ?v_88 ?v_241) ?v_242)) (or (or ?v_84 ?v_157) ?v_98)) (or (or P32 ?v_191) ?v_223)) (or (or P7 P37) ?v_224)) (or (or ?v_197 ?v_5) ?v_137)) (or (or ?v_130 ?v_111) ?v_100)) (or (or ?v_224 ?v_53) ?v_117)) (or (or ?v_124 ?v_81) ?v_120)) (or (or ?v_183 ?v_243) ?v_176)) (or (or P14 P38) ?v_244)) (or (or ?v_149 ?v_232) ?v_100)) (or (or ?v_63 ?v_214) ?v_89)) (or (or ?v_98 ?v_185) ?v_218)) (or (or P38 ?v_178) ?v_111)) (or (or P31 ?v_63) ?v_110)) (or (or ?v_90 ?v_55) P46)) (or (or ?v_98 ?v_150) ?v_14)) (or (or ?v_187 ?v_245) ?v_151)) (or (or ?v_36 ?v_177) ?v_69)) (or (or ?v_239 P27) ?v_234)) (or (or ?v_133 ?v_129) ?v_111)) (or (or ?v_194 P41) ?v_151)) (or (or ?v_51 ?v_1) ?v_211)) (or (or P43 P34) ?v_93)) (or (or ?v_125 ?v_219) ?v_62)) (or (or ?v_218 ?v_88) ?v_96)) (or (or ?v_170 ?v_98) ?v_196)) (or (or ?v_179 ?v_206) P42)) (or (or ?v_20 ?v_57) ?v_236)) (or (or ?v_7 ?v_135) ?v_157)) (or (or ?v_238 ?v_170) ?v_28)) (or (or ?v_191 ?v_240) P22)) (or (or ?v_68 ?v_101) P0)) (or (or ?v_140 ?v_208) P14)) (or (or ?v_86 P47) P40)) (or (or ?v_41 ?v_28) ?v_126)) (or (or ?v_105 ?v_125) ?v_246)) (or (or P6 ?v_0) ?v_150)) (or (or P49 ?v_134) P31)) (or (or ?v_170 ?v_223) ?v_116)) (or (or P43 ?v_245) ?v_209)) (or (or ?v_160 ?v_84) ?v_203)) (or (or ?v_107 ?v_199) ?v_139)) (or (or P37 ?v_246) ?v_1)) (or (or ?v_182 P28) P34)) (or (or ?v_204 ?v_65) ?v_134)) (or (or ?v_247 ?v_171) ?v_32)) (or (or P36 ?v_194) P7)) (or (or ?v_179 ?v_237) P40)) (or (or ?v_51 ?v_21) ?v_108)) (or (or ?v_119 ?v_72) ?v_78)) (or (or ?v_45 ?v_1) ?v_168)) (or (or P37 ?v_76) ?v_63)) (or (or ?v_26 ?v_176) ?v_158)) (or (or ?v_11 ?v_35) P33)) (or (or ?v_79 ?v_64) ?v_72)) (or (or P42 ?v_217) ?v_61)) (or (or ?v_9 ?v_133) ?v_113)) (or (or ?v_146 ?v_39) P42)) (or (or ?v_238 ?v_215) ?v_3)) (or (or ?v_248 ?v_100) ?v_147)) (or (or P36 ?v_14) ?v_249)) (or (or ?v_190 ?v_80) P47)) (or (or ?v_217 P11) ?v_206)) (or (or P35 ?v_77) ?v_158)) (or (or ?v_51 ?v_34) ?v_154)) (or (or P33 ?v_215) ?v_52)) (or (or ?v_52 P40) ?v_174)) (or (or ?v_117 ?v_97) ?v_227)) (or (or ?v_215 ?v_94) ?v_134)) (or (or ?v_221 P22) ?v_39)) (or (or ?v_124 ?v_195) ?v_53)) (or (or ?v_217 ?v_15) ?v_181)) (or (or ?v_61 ?v_81) ?v_38)) (or (or ?v_96 P49) ?v_105)) (or (or ?v_177 ?v_218) ?v_83)) (or (or P48 ?v_142) ?v_24)) (or (or ?v_248 ?v_247) ?v_204)) (or (or P43 ?v_3) ?v_222)) (or (or ?v_125 ?v_171) ?v_168)) (or (or ?v_39 ?v_49) ?v_199)) (or (or ?v_237 ?v_165) ?v_235)) (or (or ?v_143 P24) ?v_36)) (or (or ?v_230 ?v_243) ?v_123)) (or (or ?v_49 ?v_107) ?v_91)) (or (or ?v_220 ?v_180) ?v_72)) (or (or ?v_146 P8) ?v_250)) (or (or ?v_21 ?v_104) ?v_133)) (or (or ?v_177 ?v_214) ?v_86)) (or (or ?v_240 ?v_167) ?v_106)) (or (or ?v_206 ?v_39) ?v_237)) (or (or ?v_216 ?v_115) ?v_105)) (or (or P0 ?v_54) ?v_177)) (or (or ?v_51 ?v_149) ?v_71)) (or (or ?v_105 ?v_251) ?v_100)) (or (or ?v_110 ?v_48) ?v_162)) (or (or ?v_26 ?v_250) ?v_83)) (or (or ?v_84 ?v_60) ?v_43)) (or (or P26 ?v_193) ?v_164)) (or (or ?v_195 ?v_250) ?v_130)) (or (or ?v_173 P25) ?v_102)) (or (or ?v_163 P39) ?v_252)) (or (or ?v_40 ?v_238) P38)) (or (or ?v_182 ?v_165) P0)) (or (or ?v_37 ?v_184) ?v_2)) (or (or ?v_31 P29) P37)) (or (or ?v_144 ?v_214) ?v_194)) (or (or P26 ?v_223) ?v_60)) (or ?v_253 ?v_179)) (or (or ?v_160 ?v_1) ?v_205)) (or (or ?v_20 ?v_249) ?v_124)) (or (or ?v_83 P47) ?v_163)) (or (or ?v_98 ?v_246) P6)) (or (or P28 P7) ?v_209)) (or (or ?v_37 ?v_51) ?v_64)) (or (or P3 ?v_210) ?v_149)) (or (or ?v_18 ?v_232) ?v_63)) (or ?v_254 ?v_65)) (or (or ?v_208 ?v_40) ?v_221)) (or (or ?v_173 ?v_245) P44)) (or (or ?v_227 ?v_245) ?v_121)) (or (or P11 ?v_77) ?v_119)) (or (or ?v_86 ?v_228) P19)) (or (or ?v_207 ?v_163) ?v_166)) (or (or ?v_191 ?v_79) ?v_25)) (or (or ?v_126 ?v_173) ?v_162)) (or (or P7 ?v_216) ?v_12)) (or (or ?v_101 ?v_81) ?v_258)) (or (or ?v_154 P44) ?v_57)) (or (or ?v_6 P2) ?v_215)) (or (or ?v_43 ?v_32) ?v_157)) (or (or ?v_92 ?v_138) ?v_47)) (or (or ?v_96 ?v_224) ?v_69)) (or (or ?v_175 ?v_201) P8)) (or (or ?v_117 ?v_161) ?v_76)) (or (or ?v_12 P28) ?v_213)) (or (or P35 ?v_74) ?v_72)) (or (or ?v_224 ?v_9) ?v_86)) (or (or ?v_241 ?v_14) ?v_170)) (or (or ?v_58 ?v_51) ?v_34)) (or (or ?v_213 ?v_183) ?v_171)) (or (or ?v_163 ?v_135) ?v_20)) (or (or ?v_191 ?v_255) ?v_212)) (or (or ?v_58 P25) ?v_230)) (or (or ?v_25 P36) ?v_208)) (or (or ?v_2 ?v_109) ?v_32)) (or (or ?v_163 ?v_62) ?v_89)) (or (or ?v_92 P3) ?v_4)) (or (or ?v_92 ?v_181) ?v_230)) (or (or ?v_28 ?v_51) P33)) (or (or ?v_59 ?v_174) ?v_179)) (or (or ?v_235 ?v_141) ?v_195)) (or (or ?v_114 P26) ?v_206)) (or (or P36 ?v_80) P17)) (or (or ?v_36 ?v_76) ?v_13)) (or (or P11 P7) P46)) (or (or ?v_249 ?v_30) ?v_106)) (or (or ?v_223 P9) ?v_14)) (or (or ?v_109 P6) ?v_196)) (or (or ?v_124 ?v_89) ?v_235)) (or (or ?v_232 ?v_242) ?v_226)) (or (or ?v_94 ?v_39) P47)) (or (or ?v_219 ?v_123) P30)) (or (or P36 ?v_127) ?v_54)) (or (or ?v_49 ?v_53) P30)) (or (or ?v_205 ?v_214) P10)) (or (or ?v_157 ?v_248) ?v_256)) (or (or ?v_257 ?v_238) ?v_117)) (or (or ?v_183 ?v_14) ?v_229)) (or (or ?v_34 ?v_80) ?v_175)) (or (or P0 ?v_4) ?v_233)) (or (or ?v_186 ?v_125) P24)) (or (or ?v_203 ?v_242) ?v_185)) (or (or ?v_50 P42) ?v_111)) (or (or ?v_56 ?v_207) ?v_92)) (or (or P37 ?v_61) ?v_137)) (or (or ?v_154 ?v_60) ?v_83)) (or (or ?v_110 ?v_136) ?v_85)) (or (or ?v_53 ?v_220) ?v_190)) (or (or ?v_258 ?v_104) ?v_96)) (or (or ?v_193 ?v_166) ?v_117)) (or (or ?v_48 P41) ?v_173)) (or (or ?v_96 P11) ?v_233)) (or (or ?v_70 ?v_120) ?v_39)) (or (or ?v_8 ?v_174) P17)) (or (or ?v_19 ?v_210) P28)) (or (or ?v_0 P6) ?v_21)) (or (or ?v_3 ?v_58) ?v_231)) (or (or ?v_46 ?v_60) ?v_121)) (or (or P26 ?v_98) ?v_173)) (or (or P47 ?v_158) ?v_117)) (or (or ?v_234 P48) ?v_191)) (or (or ?v_113 P33) ?v_160)) (or (or ?v_3 ?v_246) ?v_195)) (or (or ?v_208 ?v_3) ?v_230)) (or (or P43 ?v_41) ?v_222)) (or (or P5 ?v_177) ?v_248)) (or (or ?v_246 P15) ?v_117)) (or (or P6 ?v_153) ?v_96)) (or (or ?v_106 ?v_124) ?v_234)) (or (or ?v_210 ?v_90) ?v_86)) (or (or ?v_25 P45) ?v_96)) (or (or ?v_196 ?v_61) ?v_86)) (or (or ?v_188 P3) P23)) (or (or ?v_182 P21) ?v_143))))))))))))))))))))))))))))))))))))
(check-sat)
(exit)
